p cnf 12 50 
-5 -4 9 0
-8 -10 -9 0
-12 9 -8 0
-10 -3 5 0
-8 -3 -7 0
9 -10 -7 0
-9 -3 5 0
6 -1 4 0
4 -1 -7 0
-3 4 2 0
-6 -8 7 0
11 -9 -8 0
-4 -9 1 0
9 7 -1 0
7 -4 10 0
-1 -5 -6 0
-9 -2 -11 0
-9 12 -8 0
-4 11 -10 0
12 10 8 0
8 9 -2 0
-6 -2 1 0
8 -3 -9 0
-3 -10 -2 0
-11 12 5 0
-10 -9 -6 0
10 -4 12 0
-11 9 8 0
-12 -1 11 0
6 -11 8 0
8 -9 -1 0
-12 5 11 0
-9 -8 3 0
-10 5 1 0
7 -9 4 0
-4 -6 7 0
-12 5 -9 0
1 11 -3 0
2 8 5 0
-3 -2 7 0
-12 -6 1 0
10 -9 5 0
5 -11 10 0
-9 -6 11 0
-4 3 6 0
-5 10 9 0
-5 10 -6 0
-7 12 6 0
-8 -11 -6 0
12 3 5 0
